15
1 0 3
2 0 4
2 1 10
3 0 10
3 1 1
3 2 4
4 0 2
4 1 3
4 2 5
4 3 7
5 0 10
5 1 5
5 2 7
5 3 7
5 4 10
6 0 6
6 1 5
6 2 6
6 3 6
6 4 7
6 5 8
7 0 3
7 1 6
7 2 2
7 3 8
7 4 10
7 5 7
7 6 4
8 0 4
8 1 9
8 2 7
8 3 2
8 4 9
8 5 5
8 6 5
8 7 9
9 0 9
9 1 2
9 2 4
9 3 9
9 4 6
9 5 10
9 6 8
9 7 2
9 8 7
10 0 1
10 1 10
10 2 4
10 3 7
10 4 4
10 5 4
10 6 3
10 7 6
10 8 1
10 9 2
11 0 3
11 1 9
11 2 7
11 3 6
11 4 8
11 5 8
11 6 7
11 7 8
11 8 8
11 9 7
11 10 3
12 0 6
12 1 1
12 2 1
12 3 3
12 4 7
12 5 2
12 6 4
12 7 5
12 8 6
12 9 3
12 10 10
12 11 8
13 0 9
13 1 4
13 2 9
13 3 4
13 4 4
13 5 10
13 6 7
13 7 5
13 8 1
13 9 8
13 10 7
13 11 3
13 12 4
14 0 9
14 1 9
14 2 9
14 3 9
14 4 2
14 5 9
14 6 2
14 7 1
14 8 6
14 9 9
14 10 7
14 11 8
14 12 9
14 13 1
